\ENCODING=ISO-8859-1
\Problem name: DansStuff/rnd_3_100_20.mop

Minimize
 C_1_1: 14 x#1#1 + 74 x#1#2 + 73 x#1#3 + 42 x#1#4 + 87 x#1#5 + 59 x#1#6
        + 26 x#1#7 + 83 x#1#8 + 16 x#1#9 + 79 x#1#10 + 36 x#2#1 + 92 x#2#2
        + 2 x#2#3 + x#2#4 + 13 x#2#5 + 90 x#2#6 + 80 x#2#7 + x#2#8 + 23 x#2#9
        + 34 x#2#10 + 61 x#3#1 + 15 x#3#2 + 99 x#3#3 + 21 x#3#4 + 79 x#3#5
        + 60 x#3#6 + 8 x#3#7 + 47 x#3#8 + 30 x#3#9 + 85 x#3#10 + 43 x#4#1
        + 83 x#4#2 + 29 x#4#3 + 8 x#4#4 + 89 x#4#5 + 54 x#4#6 + 61 x#4#7
        + 39 x#4#8 + 30 x#4#9 + 76 x#4#10 + 97 x#5#1 + 8 x#5#2 + 59 x#5#3
        + 68 x#5#4 + 47 x#5#5 + 85 x#5#6 + 75 x#5#7 + x#5#8 + 24 x#5#9
        + 6 x#5#10 + x#6#1 + 35 x#6#2 + 6 x#6#3 + 39 x#6#4 + 54 x#6#5
        + 70 x#6#6 + 97 x#6#7 + 90 x#6#8 + 56 x#6#9 + 71 x#6#10 + 49 x#7#1
        + 67 x#7#2 + 21 x#7#3 + 30 x#7#4 + 17 x#7#5 + 44 x#7#6 + 96 x#7#7
        + 62 x#7#8 + 25 x#7#9 + 80 x#7#10 + 94 x#8#1 + 31 x#8#2 + 99 x#8#3
        + 72 x#8#4 + 18 x#8#5 + 65 x#8#6 + 76 x#8#7 + 47 x#8#8 + 29 x#8#9
        + 96 x#8#10 + 24 x#9#1 + 58 x#9#2 + 42 x#9#3 + 85 x#9#4 + 3 x#9#5
        + 68 x#9#6 + 7 x#9#7 + 42 x#9#8 + 12 x#9#9 + 39 x#9#10 + 87 x#10#1
        + 63 x#10#2 + 87 x#10#3 + 13 x#10#4 + 84 x#10#5 + 4 x#10#6 + 33 x#10#7
        + 46 x#10#8 + 33 x#10#9 + 83 x#10#10
Subject To
 rows_1:  x#1#1 + x#1#2 + x#1#3 + x#1#4 + x#1#5 + x#1#6 + x#1#7 + x#1#8 + x#1#9
          + x#1#10  = 1
 rows_2:  x#2#1 + x#2#2 + x#2#3 + x#2#4 + x#2#5 + x#2#6 + x#2#7 + x#2#8 + x#2#9
          + x#2#10  = 1
 rows_3:  x#3#1 + x#3#2 + x#3#3 + x#3#4 + x#3#5 + x#3#6 + x#3#7 + x#3#8 + x#3#9
          + x#3#10  = 1
 rows_4:  x#4#1 + x#4#2 + x#4#3 + x#4#4 + x#4#5 + x#4#6 + x#4#7 + x#4#8 + x#4#9
          + x#4#10  = 1
 rows_5:  x#5#1 + x#5#2 + x#5#3 + x#5#4 + x#5#5 + x#5#6 + x#5#7 + x#5#8 + x#5#9
          + x#5#10  = 1
 rows_6:  x#6#1 + x#6#2 + x#6#3 + x#6#4 + x#6#5 + x#6#6 + x#6#7 + x#6#8 + x#6#9
          + x#6#10  = 1
 rows_7:  x#7#1 + x#7#2 + x#7#3 + x#7#4 + x#7#5 + x#7#6 + x#7#7 + x#7#8 + x#7#9
          + x#7#10  = 1
 rows_8:  x#8#1 + x#8#2 + x#8#3 + x#8#4 + x#8#5 + x#8#6 + x#8#7 + x#8#8 + x#8#9
          + x#8#10  = 1
 rows_9:  x#9#1 + x#9#2 + x#9#3 + x#9#4 + x#9#5 + x#9#6 + x#9#7 + x#9#8 + x#9#9
          + x#9#10  = 1
 rows_10: x#10#1 + x#10#2 + x#10#3 + x#10#4 + x#10#5 + x#10#6 + x#10#7 + x#10#8
          + x#10#9 + x#10#10  = 1
 cols_1:  x#1#1 + x#2#1 + x#3#1 + x#4#1 + x#5#1 + x#6#1 + x#7#1 + x#8#1 + x#9#1
          + x#10#1  = 1
 cols_2:  x#1#2 + x#2#2 + x#3#2 + x#4#2 + x#5#2 + x#6#2 + x#7#2 + x#8#2 + x#9#2
          + x#10#2  = 1
 cols_3:  x#1#3 + x#2#3 + x#3#3 + x#4#3 + x#5#3 + x#6#3 + x#7#3 + x#8#3 + x#9#3
          + x#10#3  = 1
 cols_4:  x#1#4 + x#2#4 + x#3#4 + x#4#4 + x#5#4 + x#6#4 + x#7#4 + x#8#4 + x#9#4
          + x#10#4  = 1
 cols_5:  x#1#5 + x#2#5 + x#3#5 + x#4#5 + x#5#5 + x#6#5 + x#7#5 + x#8#5 + x#9#5
          + x#10#5  = 1
 cols_6:  x#1#6 + x#2#6 + x#3#6 + x#4#6 + x#5#6 + x#6#6 + x#7#6 + x#8#6 + x#9#6
          + x#10#6  = 1
 cols_7:  x#1#7 + x#2#7 + x#3#7 + x#4#7 + x#5#7 + x#6#7 + x#7#7 + x#8#7 + x#9#7
          + x#10#7  = 1
 cols_8:  x#1#8 + x#2#8 + x#3#8 + x#4#8 + x#5#8 + x#6#8 + x#7#8 + x#8#8 + x#9#8
          + x#10#8  = 1
 cols_9:  x#1#9 + x#2#9 + x#3#9 + x#4#9 + x#5#9 + x#6#9 + x#7#9 + x#8#9 + x#9#9
          + x#10#9  = 1
 cols_10: x#1#10 + x#2#10 + x#3#10 + x#4#10 + x#5#10 + x#6#10 + x#7#10 + x#8#10
          + x#9#10 + x#10#10  = 1
End
